# Objective value = 5041.62
I_0_0 1540
I_0_1 1.8950000000000005e+03
I_0_2 1.6470000000000005e+03
I_0_3 2.2869999999999991e+03
I_1_0 96
I_1_1 0
I_1_2 96
I_1_3 0
I_2_0 89
I_2_1 89
I_2_2 89
I_2_3 0
I_3_0 89
I_3_1 89
I_3_2 89
I_3_3 0
I_4_0 166
I_4_1 83
I_4_2 166
I_4_3 8.2999999999999986e+01
I_5_0 154
I_5_1 1.5399999999999997e+02
I_5_2 7.6999999999999986e+01
I_5_3 -7.5495165674510645e-15
I_6_0 67
I_6_1 0
I_6_2 67
I_6_3 0
I_7_0 78
I_7_1 3.8999999999999993e+01
I_7_2 78
I_7_3 3.9000000000000007e+01
I_8_0 39
I_8_1 0
I_8_2 39
I_8_3 0
I_9_0 62
I_9_1 31
I_9_2 6.1999999999999979e+01
I_9_3 31
I_10_0 60
I_10_1 6.0000000000000007e+01
I_10_2 3.0000000000000036e+01
I_10_3 3.5527136788005009e-14
q_1_0 0
q_1_1 192
q_1_2 0
q_2_0 89
q_2_1 89
q_2_2 0
q_3_0 89
q_3_1 89
q_3_2 0
q_4_0 0
q_4_1 166
q_4_2 0
q_5_0 7.6999999999999972e+01
q_5_1 4.8849813083506888e-14
q_5_2 3.5527136788005009e-15
q_6_0 0
q_6_1 134
q_6_2 0
q_7_0 -8.6597395920762210e-15
q_7_1 78
q_7_2 3.5527136788005009e-15
q_8_0 0
q_8_1 78
q_8_2 0
q_9_0 0
q_9_1 6.1999999999999986e+01
q_9_2 1.9539925233402755e-14
q_10_0 3.0000000000000007e+01
q_10_1 4.2632564145606011e-14
q_10_2 0
y_0_0 1
y_0_1 1
y_0_2 0
y_1_0 0
y_1_1 1
y_1_2 0
y_2_0 1
y_2_1 1
y_2_2 0
y_3_0 1
y_3_1 1
y_3_2 0
y_4_0 0
y_4_1 1
y_4_2 0
y_5_0 9.9999999999999956e-01
y_5_1 0
y_5_2 0
y_6_0 0
y_6_1 1
y_6_2 0
y_7_0 -2.2204460492503131e-16
y_7_1 1
y_7_2 1.6653345369377348e-16
y_8_0 0
y_8_1 1
y_8_2 0
y_9_0 0
y_9_1 9.9999999999999956e-01
y_9_2 1.6653345369377348e-16
y_10_0 1.0000000000000002e+00
y_10_1 4.4408920985006262e-16
y_10_2 0
x_0_1_0 0
x_0_1_1 0
x_0_1_2 0
x_0_2_0 0
x_0_2_1 1.0000000000000016e+00
x_0_2_2 0
x_0_3_0 1.0000000000000018e+00
x_0_3_1 9.9999999999999911e-01
x_0_3_2 1.4779844015322396e-15
x_0_4_0 0
x_0_4_1 0
x_0_4_2 0
x_0_5_0 -2.3314683517128287e-15
x_0_5_1 0
x_0_5_2 0
x_0_6_0 0
x_0_6_1 0
x_0_6_2 0
x_0_7_0 0
x_0_7_1 0
x_0_7_2 0
x_0_8_0 0
x_0_8_1 -9.9920072216264089e-16
x_0_8_2 0
x_0_9_0 1.7347234759768071e-16
x_0_9_1 0
x_0_9_2 0
x_0_10_0 1.0000000000000004e+00
x_0_10_1 3.1086244689504383e-15
x_0_10_2 3.0531133177191805e-16
x_1_2_0 0
x_1_2_1 1
x_1_2_2 0
x_1_3_0 0
x_1_3_1 0
x_1_3_2 0
x_1_4_0 0
x_1_4_1 0
x_1_4_2 0
x_1_5_0 0
x_1_5_1 0
x_1_5_2 0
x_1_6_0 0
x_1_6_1 0
x_1_6_2 0
x_1_7_0 0
x_1_7_1 8.8817841970012523e-16
x_1_7_2 1.6653345369377348e-16
x_1_8_0 0
x_1_8_1 0
x_1_8_2 0
x_1_9_0 0
x_1_9_1 9.9999999999999911e-01
x_1_9_2 -1.6653345369377348e-16
x_1_10_0 0
x_1_10_1 0
x_1_10_2 0
x_2_3_0 0
x_2_3_1 0
x_2_3_2 0
x_2_4_0 0
x_2_4_1 0
x_2_4_2 0
x_2_5_0 1.0000000000000013e+00
x_2_5_1 -2.7755575615628914e-16
x_2_5_2 0
x_2_6_0 0
x_2_6_1 0
x_2_6_2 0
x_2_7_0 0
x_2_7_1 0
x_2_7_2 0
x_2_8_0 0
x_2_8_1 0
x_2_8_2 0
x_2_9_0 -8.4654505627668186e-16
x_2_9_1 0
x_2_9_2 0
x_2_10_0 1
x_2_10_1 -1.7763568394002505e-15
x_2_10_2 0
x_3_4_0 0
x_3_4_1 0
x_3_4_2 0
x_3_5_0 1.0000000000000007e+00
x_3_5_1 0
x_3_5_2 0
x_3_6_0 0
x_3_6_1 0
x_3_6_2 0
x_3_7_0 0
x_3_7_1 0
x_3_7_2 0
x_3_8_0 0
x_3_8_1 1.0000000000000013e+00
x_3_8_2 0
x_3_9_0 0
x_3_9_1 0
x_3_9_2 0
x_3_10_0 0
x_3_10_1 0
x_3_10_2 -6.38378239159465e-16
x_4_5_0 0
x_4_5_1 0
x_4_5_2 0
x_4_6_0 0
x_4_6_1 1
x_4_6_2 0
x_4_7_0 0
x_4_7_1 0
x_4_7_2 0
x_4_8_0 0
x_4_8_1 1
x_4_8_2 0
x_4_9_0 0
x_4_9_1 0
x_4_9_2 0
x_4_10_0 0
x_4_10_1 0
x_4_10_2 0
x_5_6_0 0
x_5_6_1 0
x_5_6_2 0
x_5_7_0 0
x_5_7_1 0
x_5_7_2 0
x_5_8_0 0
x_5_8_1 0
x_5_8_2 0
x_5_9_0 0
x_5_9_1 0
x_5_9_2 0
x_5_10_0 0
x_5_10_1 0
x_5_10_2 0
x_6_7_0 0
x_6_7_1 1
x_6_7_2 0
x_6_8_0 0
x_6_8_1 0
x_6_8_2 0
x_6_9_0 0
x_6_9_1 6.1062266354383610e-16
x_6_9_2 0
x_6_10_0 0
x_6_10_1 0
x_6_10_2 0
x_7_8_0 0
x_7_8_1 0
x_7_8_2 0
x_7_9_0 -4.4408920985006262e-16
x_7_9_1 9.9999999999999911e-01
x_7_9_2 1.6653345369377348e-16
x_7_10_0 0
x_7_10_1 0
x_7_10_2 0
x_8_9_0 0
x_8_9_1 0
x_8_9_2 0
x_8_10_0 0
x_8_10_1 0
x_8_10_2 0
x_9_10_0 0
x_9_10_1 0
x_9_10_2 3.3306690738754696e-16
